p edge 1360 2466
e 1 22 1
e 1 2 1
e 2 23 1
e 3 24 1
e 3 4 1
e 4 25 1
e 4 5 1
e 5 26 1
e 5 6 1
e 6 27 1
e 6 7 1
e 7 28 1
e 7 8 1
e 8 29 1
e 8 9 1
e 9 30 1
e 9 10 1
e 10 31 1
e 10 11 1
e 11 32 1
e 11 12 1
e 12 33 1
e 12 13 1
e 13 34 1
e 13 14 1
e 14 35 1
e 14 15 1
e 15 36 1
e 16 37 1
e 17 42 1
e 17 18 1
e 18 43 1
e 18 19 1
e 19 44 1
e 19 20 1
e 20 45 1
e 20 21 1
e 21 46 1
e 22 47 1
e 22 23 1
e 23 48 1
e 24 25 1
e 25 49 1
e 25 26 1
e 26 50 1
e 26 27 1
e 27 51 1
e 27 28 1
e 28 52 1
e 28 29 1
e 29 53 1
e 29 30 1
e 30 54 1
e 30 31 1
e 31 55 1
e 31 32 1
e 32 56 1
e 32 33 1
e 33 57 1
e 33 34 1
e 34 58 1
e 34 35 1
e 35 59 1
e 35 36 1
e 36 60 1
e 37 61 1
e 37 38 1
e 38 62 1
e 39 64 1
e 39 40 1
e 40 65 1
e 40 41 1
e 41 66 1
e 41 42 1
e 42 67 1
e 42 43 1
e 43 68 1
e 43 44 1
e 44 69 1
e 44 45 1
e 45 70 1
e 45 46 1
e 46 71 1
e 47 74 1
e 47 48 1
e 48 75 1
e 49 76 1
e 49 50 1
e 50 77 1
e 50 51 1
e 51 78 1
e 51 52 1
e 52 79 1
e 52 53 1
e 53 80 1
e 53 54 1
e 54 81 1
e 54 55 1
e 55 82 1
e 55 56 1
e 56 83 1
e 56 57 1
e 57 84 1
e 57 58 1
e 58 85 1
e 58 59 1
e 59 86 1
e 59 60 1
e 60 87 1
e 61 91 1
e 61 62 1
e 62 92 1
e 62 63 1
e 63 93 1
e 64 94 1
e 64 65 1
e 65 95 1
e 65 66 1
e 66 96 1
e 66 67 1
e 67 97 1
e 67 68 1
e 68 98 1
e 68 69 1
e 69 99 1
e 69 70 1
e 70 100 1
e 70 71 1
e 71 101 1
e 72 110 1
e 72 73 1
e 73 111 1
e 73 74 1
e 74 112 1
e 74 75 1
e 75 113 1
e 76 114 1
e 76 77 1
e 77 115 1
e 77 78 1
e 78 116 1
e 78 79 1
e 79 80 1
e 80 81 1
e 81 82 1
e 82 83 1
e 83 84 1
e 84 85 1
e 85 86 1
e 86 117 1
e 86 87 1
e 87 118 1
e 87 88 1
e 88 119 1
e 88 89 1
e 89 120 1
e 89 90 1
e 90 121 1
e 90 91 1
e 91 122 1
e 91 92 1
e 92 123 1
e 92 93 1
e 93 124 1
e 94 127 1
e 94 95 1
e 95 128 1
e 95 96 1
e 96 129 1
e 96 97 1
e 97 130 1
e 97 98 1
e 98 131 1
e 98 99 1
e 99 132 1
e 99 100 1
e 100 133 1
e 100 101 1
e 101 134 1
e 101 102 1
e 102 135 1
e 102 103 1
e 103 136 1
e 103 104 1
e 104 137 1
e 104 105 1
e 105 138 1
e 105 106 1
e 106 139 1
e 106 107 1
e 107 140 1
e 107 108 1
e 108 141 1
e 108 109 1
e 110 111 1
e 111 142 1
e 111 112 1
e 112 143 1
e 112 113 1
e 113 144 1
e 114 145 1
e 114 115 1
e 115 146 1
e 115 116 1
e 116 147 1
e 117 148 1
e 117 118 1
e 118 149 1
e 118 119 1
e 119 150 1
e 119 120 1
e 120 151 1
e 120 121 1
e 121 152 1
e 121 122 1
e 122 153 1
e 122 123 1
e 123 154 1
e 123 124 1
e 124 155 1
e 124 125 1
e 125 156 1
e 125 126 1
e 126 157 1
e 127 159 1
e 127 128 1
e 128 160 1
e 128 129 1
e 129 161 1
e 129 130 1
e 130 162 1
e 130 131 1
e 131 163 1
e 131 132 1
e 132 164 1
e 132 133 1
e 133 165 1
e 133 134 1
e 134 166 1
e 134 135 1
e 135 167 1
e 135 136 1
e 136 168 1
e 136 137 1
e 137 169 1
e 137 138 1
e 138 170 1
e 138 139 1
e 139 171 1
e 139 140 1
e 140 172 1
e 140 141 1
e 141 173 1
e 142 174 1
e 142 143 1
e 143 175 1
e 143 144 1
e 144 176 1
e 145 180 1
e 145 146 1
e 146 181 1
e 146 147 1
e 147 182 1
e 148 149 1
e 149 150 1
e 150 183 1
e 150 151 1
e 151 184 1
e 151 152 1
e 152 185 1
e 152 153 1
e 153 186 1
e 153 154 1
e 154 187 1
e 154 155 1
e 155 188 1
e 155 156 1
e 156 189 1
e 156 157 1
e 157 190 1
e 157 158 1
e 158 191 1
e 159 197 1
e 159 160 1
e 160 198 1
e 160 161 1
e 161 199 1
e 161 162 1
e 162 200 1
e 162 163 1
e 163 201 1
e 163 164 1
e 164 202 1
e 164 165 1
e 165 203 1
e 165 166 1
e 166 204 1
e 166 167 1
e 167 205 1
e 167 168 1
e 168 206 1
e 168 169 1
e 169 207 1
e 169 170 1
e 170 208 1
e 170 171 1
e 171 209 1
e 171 172 1
e 172 210 1
e 172 173 1
e 173 211 1
e 174 213 1
e 174 175 1
e 175 214 1
e 175 176 1
e 176 215 1
e 176 177 1
e 177 216 1
e 177 178 1
e 178 217 1
e 178 179 1
e 179 218 1
e 179 180 1
e 180 219 1
e 180 181 1
e 181 220 1
e 181 182 1
e 182 221 1
e 183 222 1
e 183 184 1
e 184 223 1
e 184 185 1
e 185 224 1
e 185 186 1
e 186 225 1
e 186 187 1
e 187 226 1
e 187 188 1
e 188 227 1
e 188 189 1
e 189 228 1
e 189 190 1
e 190 229 1
e 190 191 1
e 191 230 1
e 192 231 1
e 192 193 1
e 193 232 1
e 193 194 1
e 194 233 1
e 194 195 1
e 195 234 1
e 195 196 1
e 196 235 1
e 196 197 1
e 197 236 1
e 197 198 1
e 198 237 1
e 198 199 1
e 199 238 1
e 199 200 1
e 200 239 1
e 200 201 1
e 201 240 1
e 201 202 1
e 202 241 1
e 202 203 1
e 203 242 1
e 203 204 1
e 204 243 1
e 204 205 1
e 205 244 1
e 205 206 1
e 206 245 1
e 206 207 1
e 207 246 1
e 207 208 1
e 208 247 1
e 208 209 1
e 209 248 1
e 209 210 1
e 210 249 1
e 210 211 1
e 211 250 1
e 211 212 1
e 212 251 1
e 213 252 1
e 213 214 1
e 214 253 1
e 214 215 1
e 215 254 1
e 215 216 1
e 216 255 1
e 216 217 1
e 217 256 1
e 217 218 1
e 218 257 1
e 218 219 1
e 219 258 1
e 219 220 1
e 220 259 1
e 220 221 1
e 221 260 1
e 222 261 1
e 222 223 1
e 223 262 1
e 223 224 1
e 224 263 1
e 224 225 1
e 225 264 1
e 225 226 1
e 226 265 1
e 226 227 1
e 227 266 1
e 227 228 1
e 228 267 1
e 228 229 1
e 229 268 1
e 229 230 1
e 231 269 1
e 231 232 1
e 232 270 1
e 232 233 1
e 233 271 1
e 233 234 1
e 234 272 1
e 234 235 1
e 235 273 1
e 235 236 1
e 236 274 1
e 236 237 1
e 237 275 1
e 237 238 1
e 238 276 1
e 238 239 1
e 239 277 1
e 239 240 1
e 240 278 1
e 240 241 1
e 241 279 1
e 241 242 1
e 242 280 1
e 242 243 1
e 243 281 1
e 243 244 1
e 244 282 1
e 244 245 1
e 245 283 1
e 245 246 1
e 246 284 1
e 246 247 1
e 247 285 1
e 247 248 1
e 248 286 1
e 248 249 1
e 249 287 1
e 249 250 1
e 250 288 1
e 250 251 1
e 251 289 1
e 252 290 1
e 252 253 1
e 253 291 1
e 253 254 1
e 254 292 1
e 254 255 1
e 255 293 1
e 255 256 1
e 256 294 1
e 256 257 1
e 257 295 1
e 257 258 1
e 258 296 1
e 258 259 1
e 259 297 1
e 259 260 1
e 260 298 1
e 261 308 1
e 261 262 1
e 262 309 1
e 262 263 1
e 263 310 1
e 263 264 1
e 264 311 1
e 264 265 1
e 265 312 1
e 265 266 1
e 266 313 1
e 266 267 1
e 267 314 1
e 267 268 1
e 268 315 1
e 269 316 1
e 269 270 1
e 270 317 1
e 270 271 1
e 271 318 1
e 271 272 1
e 272 319 1
e 272 273 1
e 273 320 1
e 273 274 1
e 274 321 1
e 274 275 1
e 275 322 1
e 275 276 1
e 276 323 1
e 276 277 1
e 277 324 1
e 277 278 1
e 278 325 1
e 278 279 1
e 279 326 1
e 279 280 1
e 280 327 1
e 280 281 1
e 281 328 1
e 281 282 1
e 282 329 1
e 282 283 1
e 283 330 1
e 283 284 1
e 284 331 1
e 284 285 1
e 285 332 1
e 285 286 1
e 286 333 1
e 286 287 1
e 287 334 1
e 287 288 1
e 288 335 1
e 288 289 1
e 290 336 1
e 290 291 1
e 291 337 1
e 291 292 1
e 292 338 1
e 292 293 1
e 293 339 1
e 293 294 1
e 294 340 1
e 294 295 1
e 295 341 1
e 295 296 1
e 296 342 1
e 296 297 1
e 297 343 1
e 297 298 1
e 298 344 1
e 298 299 1
e 299 345 1
e 299 300 1
e 300 346 1
e 300 301 1
e 301 347 1
e 301 302 1
e 302 348 1
e 302 303 1
e 303 349 1
e 303 304 1
e 304 350 1
e 304 305 1
e 305 351 1
e 305 306 1
e 306 352 1
e 306 307 1
e 307 353 1
e 307 308 1
e 308 354 1
e 308 309 1
e 309 355 1
e 309 310 1
e 310 356 1
e 310 311 1
e 311 357 1
e 311 312 1
e 312 358 1
e 312 313 1
e 313 359 1
e 313 314 1
e 314 360 1
e 314 315 1
e 315 361 1
e 316 363 1
e 316 317 1
e 317 364 1
e 317 318 1
e 318 365 1
e 318 319 1
e 319 366 1
e 319 320 1
e 320 367 1
e 320 321 1
e 321 368 1
e 321 322 1
e 322 369 1
e 322 323 1
e 323 370 1
e 323 324 1
e 324 371 1
e 324 325 1
e 325 372 1
e 325 326 1
e 326 373 1
e 326 327 1
e 327 374 1
e 327 328 1
e 328 375 1
e 328 329 1
e 329 376 1
e 329 330 1
e 330 377 1
e 330 331 1
e 331 378 1
e 331 332 1
e 332 379 1
e 332 333 1
e 333 380 1
e 333 334 1
e 334 381 1
e 334 335 1
e 335 382 1
e 336 383 1
e 336 337 1
e 337 384 1
e 337 338 1
e 338 385 1
e 338 339 1
e 339 386 1
e 339 340 1
e 340 387 1
e 340 341 1
e 341 388 1
e 341 342 1
e 342 389 1
e 342 343 1
e 343 390 1
e 343 344 1
e 344 391 1
e 344 345 1
e 345 392 1
e 345 346 1
e 346 393 1
e 346 347 1
e 347 394 1
e 347 348 1
e 348 395 1
e 348 349 1
e 349 396 1
e 349 350 1
e 350 397 1
e 350 351 1
e 351 398 1
e 351 352 1
e 352 399 1
e 352 353 1
e 353 400 1
e 353 354 1
e 354 401 1
e 354 355 1
e 355 402 1
e 355 356 1
e 356 403 1
e 356 357 1
e 357 358 1
e 358 359 1
e 359 360 1
e 360 361 1
e 361 362 1
e 363 364 1
e 364 365 1
e 365 366 1
e 366 367 1
e 367 404 1
e 367 368 1
e 368 405 1
e 368 369 1
e 369 406 1
e 369 370 1
e 370 407 1
e 370 371 1
e 371 408 1
e 371 372 1
e 372 409 1
e 372 373 1
e 373 410 1
e 373 374 1
e 374 411 1
e 374 375 1
e 375 412 1
e 375 376 1
e 376 413 1
e 376 377 1
e 377 414 1
e 377 378 1
e 378 415 1
e 378 379 1
e 379 416 1
e 379 380 1
e 380 417 1
e 380 381 1
e 381 418 1
e 381 382 1
e 382 419 1
e 383 420 1
e 383 384 1
e 384 421 1
e 384 385 1
e 385 422 1
e 385 386 1
e 386 423 1
e 386 387 1
e 387 424 1
e 387 388 1
e 388 425 1
e 388 389 1
e 389 426 1
e 389 390 1
e 390 427 1
e 390 391 1
e 391 428 1
e 391 392 1
e 392 429 1
e 392 393 1
e 393 430 1
e 393 394 1
e 394 431 1
e 394 395 1
e 395 432 1
e 395 396 1
e 396 433 1
e 396 397 1
e 397 434 1
e 397 398 1
e 398 399 1
e 399 400 1
e 400 401 1
e 401 402 1
e 402 403 1
e 404 435 1
e 404 405 1
e 405 436 1
e 405 406 1
e 406 437 1
e 406 407 1
e 407 438 1
e 407 408 1
e 408 439 1
e 408 409 1
e 409 440 1
e 409 410 1
e 410 441 1
e 410 411 1
e 411 442 1
e 411 412 1
e 412 443 1
e 412 413 1
e 413 444 1
e 413 414 1
e 414 445 1
e 414 415 1
e 415 446 1
e 415 416 1
e 416 447 1
e 416 417 1
e 417 448 1
e 417 418 1
e 418 449 1
e 418 419 1
e 419 450 1
e 420 421 1
e 421 422 1
e 422 423 1
e 423 424 1
e 424 425 1
e 425 426 1
e 426 427 1
e 427 451 1
e 427 428 1
e 428 452 1
e 428 429 1
e 429 430 1
e 430 431 1
e 431 432 1
e 432 433 1
e 433 434 1
e 435 436 1
e 436 437 1
e 437 438 1
e 438 439 1
e 439 453 1
e 439 440 1
e 440 454 1
e 440 441 1
e 441 455 1
e 441 442 1
e 442 456 1
e 442 443 1
e 443 457 1
e 443 444 1
e 444 458 1
e 444 445 1
e 445 459 1
e 445 446 1
e 446 460 1
e 446 447 1
e 447 461 1
e 447 448 1
e 448 462 1
e 448 449 1
e 449 463 1
e 449 450 1
e 450 464 1
e 451 466 1
e 451 452 1
e 452 467 1
e 453 468 1
e 453 454 1
e 454 469 1
e 454 455 1
e 455 470 1
e 455 456 1
e 456 471 1
e 456 457 1
e 457 472 1
e 457 458 1
e 458 473 1
e 458 459 1
e 459 474 1
e 459 460 1
e 460 475 1
e 460 461 1
e 461 476 1
e 461 462 1
e 462 477 1
e 462 463 1
e 463 478 1
e 463 464 1
e 464 479 1
e 464 465 1
e 465 480 1
e 466 481 1
e 466 467 1
e 467 482 1
e 468 483 1
e 468 469 1
e 469 484 1
e 469 470 1
e 470 485 1
e 470 471 1
e 471 486 1
e 471 472 1
e 472 487 1
e 472 473 1
e 473 488 1
e 473 474 1
e 474 489 1
e 474 475 1
e 475 490 1
e 475 476 1
e 476 491 1
e 476 477 1
e 477 492 1
e 477 478 1
e 478 479 1
e 479 480 1
e 481 502 1
e 481 482 1
e 482 503 1
e 483 513 1
e 483 484 1
e 484 514 1
e 484 485 1
e 485 515 1
e 485 486 1
e 486 516 1
e 486 487 1
e 487 517 1
e 487 488 1
e 488 518 1
e 488 489 1
e 489 519 1
e 489 490 1
e 490 520 1
e 490 491 1
e 491 521 1
e 491 492 1
e 492 522 1
e 493 523 1
e 493 494 1
e 494 524 1
e 494 495 1
e 495 525 1
e 495 496 1
e 496 526 1
e 496 497 1
e 497 527 1
e 497 498 1
e 498 528 1
e 498 499 1
e 499 529 1
e 499 500 1
e 500 530 1
e 500 501 1
e 501 531 1
e 501 502 1
e 502 532 1
e 502 503 1
e 503 533 1
e 503 504 1
e 504 534 1
e 504 505 1
e 505 535 1
e 505 506 1
e 506 536 1
e 506 507 1
e 507 537 1
e 507 508 1
e 508 538 1
e 508 509 1
e 509 539 1
e 510 540 1
e 510 511 1
e 511 541 1
e 511 512 1
e 512 542 1
e 513 553 1
e 513 514 1
e 514 554 1
e 514 515 1
e 515 555 1
e 515 516 1
e 516 556 1
e 516 517 1
e 517 557 1
e 517 518 1
e 518 558 1
e 518 519 1
e 519 559 1
e 519 520 1
e 520 560 1
e 520 521 1
e 521 561 1
e 521 522 1
e 522 562 1
e 523 563 1
e 523 524 1
e 524 564 1
e 524 525 1
e 525 565 1
e 525 526 1
e 526 566 1
e 526 527 1
e 527 567 1
e 527 528 1
e 528 568 1
e 528 529 1
e 529 569 1
e 529 530 1
e 530 570 1
e 530 531 1
e 531 571 1
e 531 532 1
e 532 572 1
e 532 533 1
e 533 573 1
e 533 534 1
e 534 574 1
e 534 535 1
e 535 575 1
e 535 536 1
e 536 576 1
e 536 537 1
e 537 577 1
e 537 538 1
e 538 578 1
e 538 539 1
e 539 579 1
e 540 583 1
e 540 541 1
e 541 584 1
e 541 542 1
e 542 585 1
e 542 543 1
e 543 586 1
e 543 544 1
e 544 587 1
e 544 545 1
e 545 588 1
e 545 546 1
e 546 589 1
e 546 547 1
e 547 590 1
e 547 548 1
e 548 591 1
e 548 549 1
e 549 592 1
e 549 550 1
e 550 593 1
e 550 551 1
e 551 594 1
e 551 552 1
e 552 595 1
e 553 597 1
e 553 554 1
e 554 598 1
e 554 555 1
e 555 599 1
e 555 556 1
e 556 600 1
e 556 557 1
e 557 601 1
e 557 558 1
e 558 602 1
e 558 559 1
e 559 603 1
e 559 560 1
e 560 604 1
e 560 561 1
e 561 605 1
e 561 562 1
e 562 606 1
e 563 607 1
e 563 564 1
e 564 608 1
e 564 565 1
e 565 609 1
e 565 566 1
e 566 610 1
e 566 567 1
e 567 611 1
e 567 568 1
e 568 612 1
e 568 569 1
e 569 613 1
e 569 570 1
e 570 614 1
e 570 571 1
e 571 615 1
e 571 572 1
e 572 616 1
e 572 573 1
e 573 617 1
e 573 574 1
e 574 618 1
e 574 575 1
e 575 619 1
e 575 576 1
e 576 620 1
e 576 577 1
e 577 621 1
e 577 578 1
e 578 622 1
e 578 579 1
e 579 623 1
e 579 580 1
e 580 624 1
e 580 581 1
e 581 625 1
e 581 582 1
e 582 626 1
e 582 583 1
e 583 627 1
e 583 584 1
e 584 628 1
e 584 585 1
e 585 629 1
e 585 586 1
e 586 630 1
e 586 587 1
e 587 631 1
e 587 588 1
e 588 632 1
e 588 589 1
e 589 590 1
e 590 591 1
e 591 633 1
e 591 592 1
e 592 634 1
e 592 593 1
e 593 635 1
e 593 594 1
e 594 636 1
e 594 595 1
e 595 637 1
e 595 596 1
e 596 638 1
e 597 640 1
e 597 598 1
e 598 641 1
e 598 599 1
e 599 642 1
e 599 600 1
e 600 643 1
e 600 601 1
e 601 644 1
e 601 602 1
e 602 645 1
e 602 603 1
e 603 604 1
e 604 605 1
e 605 646 1
e 605 606 1
e 606 647 1
e 607 648 1
e 607 608 1
e 608 649 1
e 608 609 1
e 609 650 1
e 609 610 1
e 610 651 1
e 610 611 1
e 611 652 1
e 611 612 1
e 612 653 1
e 612 613 1
e 613 654 1
e 613 614 1
e 614 655 1
e 614 615 1
e 615 656 1
e 615 616 1
e 616 657 1
e 616 617 1
e 617 658 1
e 617 618 1
e 618 659 1
e 618 619 1
e 619 660 1
e 619 620 1
e 620 661 1
e 620 621 1
e 621 662 1
e 621 622 1
e 622 663 1
e 622 623 1
e 623 664 1
e 623 624 1
e 624 665 1
e 624 625 1
e 625 666 1
e 625 626 1
e 626 667 1
e 626 627 1
e 627 668 1
e 627 628 1
e 628 669 1
e 628 629 1
e 629 670 1
e 629 630 1
e 630 671 1
e 630 631 1
e 631 672 1
e 631 632 1
e 632 673 1
e 633 676 1
e 633 634 1
e 634 677 1
e 634 635 1
e 635 678 1
e 635 636 1
e 636 679 1
e 636 637 1
e 637 680 1
e 637 638 1
e 638 681 1
e 638 639 1
e 639 682 1
e 640 684 1
e 640 641 1
e 641 685 1
e 641 642 1
e 642 686 1
e 642 643 1
e 643 687 1
e 643 644 1
e 644 688 1
e 644 645 1
e 645 689 1
e 646 690 1
e 646 647 1
e 647 691 1
e 648 692 1
e 648 649 1
e 649 693 1
e 649 650 1
e 650 694 1
e 650 651 1
e 651 695 1
e 651 652 1
e 652 696 1
e 652 653 1
e 653 697 1
e 653 654 1
e 654 698 1
e 654 655 1
e 655 699 1
e 655 656 1
e 656 700 1
e 656 657 1
e 657 701 1
e 657 658 1
e 658 702 1
e 658 659 1
e 659 703 1
e 659 660 1
e 660 704 1
e 660 661 1
e 661 705 1
e 661 662 1
e 662 706 1
e 662 663 1
e 663 707 1
e 663 664 1
e 664 708 1
e 664 665 1
e 665 709 1
e 665 666 1
e 666 710 1
e 666 667 1
e 667 711 1
e 667 668 1
e 668 712 1
e 668 669 1
e 669 713 1
e 669 670 1
e 670 714 1
e 670 671 1
e 671 715 1
e 671 672 1
e 672 716 1
e 672 673 1
e 673 717 1
e 673 674 1
e 674 718 1
e 674 675 1
e 675 719 1
e 675 676 1
e 676 720 1
e 676 677 1
e 677 721 1
e 677 678 1
e 678 722 1
e 678 679 1
e 679 723 1
e 679 680 1
e 680 724 1
e 680 681 1
e 681 725 1
e 681 682 1
e 682 726 1
e 682 683 1
e 683 727 1
e 684 728 1
e 684 685 1
e 685 729 1
e 685 686 1
e 686 730 1
e 686 687 1
e 687 731 1
e 687 688 1
e 688 732 1
e 688 689 1
e 690 733 1
e 690 691 1
e 691 734 1
e 692 738 1
e 692 693 1
e 693 739 1
e 693 694 1
e 694 740 1
e 694 695 1
e 695 741 1
e 695 696 1
e 696 742 1
e 696 697 1
e 697 743 1
e 697 698 1
e 698 744 1
e 698 699 1
e 699 745 1
e 699 700 1
e 700 746 1
e 700 701 1
e 701 747 1
e 701 702 1
e 702 748 1
e 702 703 1
e 703 749 1
e 703 704 1
e 704 750 1
e 704 705 1
e 705 751 1
e 705 706 1
e 706 752 1
e 706 707 1
e 707 753 1
e 707 708 1
e 708 754 1
e 708 709 1
e 709 755 1
e 709 710 1
e 710 756 1
e 710 711 1
e 711 757 1
e 711 712 1
e 712 758 1
e 712 713 1
e 713 759 1
e 713 714 1
e 714 760 1
e 714 715 1
e 715 761 1
e 715 716 1
e 716 762 1
e 716 717 1
e 717 763 1
e 717 718 1
e 718 764 1
e 718 719 1
e 719 765 1
e 719 720 1
e 720 766 1
e 720 721 1
e 721 767 1
e 721 722 1
e 722 768 1
e 722 723 1
e 723 769 1
e 723 724 1
e 724 770 1
e 724 725 1
e 725 771 1
e 725 726 1
e 726 772 1
e 726 727 1
e 727 773 1
e 728 775 1
e 728 729 1
e 729 776 1
e 729 730 1
e 730 777 1
e 730 731 1
e 731 778 1
e 731 732 1
e 732 779 1
e 733 781 1
e 733 734 1
e 734 782 1
e 734 735 1
e 735 783 1
e 735 736 1
e 736 784 1
e 736 737 1
e 737 785 1
e 738 786 1
e 738 739 1
e 739 787 1
e 739 740 1
e 740 788 1
e 740 741 1
e 741 789 1
e 741 742 1
e 742 790 1
e 742 743 1
e 743 791 1
e 743 744 1
e 744 792 1
e 744 745 1
e 745 793 1
e 745 746 1
e 746 794 1
e 746 747 1
e 747 795 1
e 747 748 1
e 748 796 1
e 748 749 1
e 749 797 1
e 749 750 1
e 750 798 1
e 750 751 1
e 751 799 1
e 751 752 1
e 752 800 1
e 752 753 1
e 753 801 1
e 753 754 1
e 754 802 1
e 754 755 1
e 755 803 1
e 755 756 1
e 756 804 1
e 756 757 1
e 757 805 1
e 757 758 1
e 758 806 1
e 758 759 1
e 759 807 1
e 759 760 1
e 760 808 1
e 760 761 1
e 761 809 1
e 761 762 1
e 762 810 1
e 762 763 1
e 763 811 1
e 763 764 1
e 764 812 1
e 764 765 1
e 765 813 1
e 765 766 1
e 766 814 1
e 766 767 1
e 767 815 1
e 767 768 1
e 768 816 1
e 768 769 1
e 769 817 1
e 769 770 1
e 770 818 1
e 770 771 1
e 771 819 1
e 771 772 1
e 772 820 1
e 772 773 1
e 773 821 1
e 773 774 1
e 774 822 1
e 775 823 1
e 775 776 1
e 776 824 1
e 776 777 1
e 777 825 1
e 777 778 1
e 778 826 1
e 778 779 1
e 779 827 1
e 780 830 1
e 780 781 1
e 781 831 1
e 781 782 1
e 782 832 1
e 782 783 1
e 783 833 1
e 783 784 1
e 784 834 1
e 784 785 1
e 786 843 1
e 786 787 1
e 787 844 1
e 787 788 1
e 788 845 1
e 788 789 1
e 789 846 1
e 789 790 1
e 790 847 1
e 790 791 1
e 791 848 1
e 791 792 1
e 792 849 1
e 792 793 1
e 793 850 1
e 793 794 1
e 794 851 1
e 794 795 1
e 795 852 1
e 795 796 1
e 796 853 1
e 796 797 1
e 797 854 1
e 797 798 1
e 798 855 1
e 798 799 1
e 799 856 1
e 799 800 1
e 800 857 1
e 800 801 1
e 801 858 1
e 801 802 1
e 802 859 1
e 802 803 1
e 803 860 1
e 803 804 1
e 804 861 1
e 804 805 1
e 805 862 1
e 805 806 1
e 806 863 1
e 806 807 1
e 807 864 1
e 807 808 1
e 808 865 1
e 808 809 1
e 809 866 1
e 809 810 1
e 810 867 1
e 810 811 1
e 811 868 1
e 811 812 1
e 812 869 1
e 812 813 1
e 813 870 1
e 813 814 1
e 814 871 1
e 814 815 1
e 815 872 1
e 815 816 1
e 816 873 1
e 816 817 1
e 817 874 1
e 817 818 1
e 818 875 1
e 818 819 1
e 819 876 1
e 819 820 1
e 820 877 1
e 820 821 1
e 821 878 1
e 821 822 1
e 822 879 1
e 823 880 1
e 823 824 1
e 824 881 1
e 824 825 1
e 825 882 1
e 825 826 1
e 826 883 1
e 826 827 1
e 827 884 1
e 827 828 1
e 828 885 1
e 828 829 1
e 829 886 1
e 829 830 1
e 830 887 1
e 830 831 1
e 831 888 1
e 831 832 1
e 832 889 1
e 832 833 1
e 833 890 1
e 833 834 1
e 834 891 1
e 835 896 1
e 835 836 1
e 836 897 1
e 836 837 1
e 837 898 1
e 837 838 1
e 838 899 1
e 838 839 1
e 839 900 1
e 839 840 1
e 840 901 1
e 840 841 1
e 841 902 1
e 841 842 1
e 842 903 1
e 842 843 1
e 843 904 1
e 843 844 1
e 844 905 1
e 844 845 1
e 845 906 1
e 845 846 1
e 846 907 1
e 846 847 1
e 847 908 1
e 847 848 1
e 848 909 1
e 848 849 1
e 849 910 1
e 849 850 1
e 850 911 1
e 850 851 1
e 851 912 1
e 851 852 1
e 852 913 1
e 852 853 1
e 853 854 1
e 854 855 1
e 855 914 1
e 855 856 1
e 856 915 1
e 856 857 1
e 857 916 1
e 857 858 1
e 858 917 1
e 858 859 1
e 859 918 1
e 859 860 1
e 860 919 1
e 860 861 1
e 861 862 1
e 862 863 1
e 863 920 1
e 863 864 1
e 864 921 1
e 864 865 1
e 865 922 1
e 865 866 1
e 866 923 1
e 866 867 1
e 867 924 1
e 867 868 1
e 868 925 1
e 868 869 1
e 869 926 1
e 869 870 1
e 870 927 1
e 870 871 1
e 871 928 1
e 871 872 1
e 872 929 1
e 872 873 1
e 873 930 1
e 873 874 1
e 874 931 1
e 874 875 1
e 875 932 1
e 875 876 1
e 876 933 1
e 876 877 1
e 877 934 1
e 877 878 1
e 878 935 1
e 878 879 1
e 879 936 1
e 880 940 1
e 880 881 1
e 881 941 1
e 881 882 1
e 882 942 1
e 882 883 1
e 883 943 1
e 883 884 1
e 884 944 1
e 884 885 1
e 885 945 1
e 885 886 1
e 886 946 1
e 886 887 1
e 887 947 1
e 887 888 1
e 888 948 1
e 888 889 1
e 889 949 1
e 889 890 1
e 890 950 1
e 890 891 1
e 891 951 1
e 892 956 1
e 892 893 1
e 893 957 1
e 893 894 1
e 894 958 1
e 894 895 1
e 895 959 1
e 895 896 1
e 896 960 1
e 896 897 1
e 897 961 1
e 897 898 1
e 898 962 1
e 898 899 1
e 899 963 1
e 899 900 1
e 900 964 1
e 900 901 1
e 901 965 1
e 901 902 1
e 902 966 1
e 902 903 1
e 903 967 1
e 903 904 1
e 904 968 1
e 904 905 1
e 905 969 1
e 905 906 1
e 906 970 1
e 906 907 1
e 907 971 1
e 907 908 1
e 908 909 1
e 909 910 1
e 910 911 1
e 911 912 1
e 912 913 1
e 914 915 1
e 915 916 1
e 916 917 1
e 917 918 1
e 918 919 1
e 920 921 1
e 921 922 1
e 922 923 1
e 923 924 1
e 924 925 1
e 925 926 1
e 926 972 1
e 926 927 1
e 927 973 1
e 927 928 1
e 928 974 1
e 928 929 1
e 929 975 1
e 929 930 1
e 930 976 1
e 930 931 1
e 931 977 1
e 931 932 1
e 932 978 1
e 932 933 1
e 933 979 1
e 933 934 1
e 934 980 1
e 934 935 1
e 935 981 1
e 935 936 1
e 936 982 1
e 936 937 1
e 937 983 1
e 937 938 1
e 938 984 1
e 938 939 1
e 939 985 1
e 939 940 1
e 940 986 1
e 940 941 1
e 941 987 1
e 941 942 1
e 942 988 1
e 942 943 1
e 943 989 1
e 943 944 1
e 944 990 1
e 944 945 1
e 945 991 1
e 945 946 1
e 946 992 1
e 946 947 1
e 947 993 1
e 947 948 1
e 948 994 1
e 948 949 1
e 949 995 1
e 949 950 1
e 950 996 1
e 950 951 1
e 951 997 1
e 952 998 1
e 952 953 1
e 953 999 1
e 953 954 1
e 954 1000 1
e 954 955 1
e 955 1001 1
e 955 956 1
e 956 1002 1
e 956 957 1
e 957 1003 1
e 957 958 1
e 958 1004 1
e 958 959 1
e 959 1005 1
e 959 960 1
e 960 1006 1
e 960 961 1
e 961 1007 1
e 961 962 1
e 962 1008 1
e 962 963 1
e 963 1009 1
e 963 964 1
e 964 1010 1
e 964 965 1
e 965 1011 1
e 965 966 1
e 966 1012 1
e 966 967 1
e 967 1013 1
e 967 968 1
e 968 1014 1
e 968 969 1
e 969 1015 1
e 969 970 1
e 970 1016 1
e 970 971 1
e 971 1017 1
e 972 1018 1
e 972 973 1
e 973 1019 1
e 973 974 1
e 974 1020 1
e 974 975 1
e 975 1021 1
e 975 976 1
e 976 1022 1
e 976 977 1
e 977 1023 1
e 977 978 1
e 978 1024 1
e 978 979 1
e 979 1025 1
e 979 980 1
e 980 1026 1
e 980 981 1
e 981 1027 1
e 981 982 1
e 982 1028 1
e 982 983 1
e 983 1029 1
e 983 984 1
e 984 985 1
e 985 986 1
e 986 1030 1
e 986 987 1
e 987 1031 1
e 987 988 1
e 988 1032 1
e 988 989 1
e 989 1033 1
e 989 990 1
e 990 1034 1
e 990 991 1
e 991 1035 1
e 991 992 1
e 992 1036 1
e 992 993 1
e 993 1037 1
e 993 994 1
e 994 1038 1
e 994 995 1
e 995 1039 1
e 995 996 1
e 996 1040 1
e 996 997 1
e 997 1041 1
e 998 1042 1
e 998 999 1
e 999 1043 1
e 999 1000 1
e 1000 1044 1
e 1000 1001 1
e 1001 1045 1
e 1001 1002 1
e 1002 1046 1
e 1002 1003 1
e 1003 1047 1
e 1003 1004 1
e 1004 1048 1
e 1004 1005 1
e 1005 1049 1
e 1005 1006 1
e 1006 1050 1
e 1006 1007 1
e 1007 1051 1
e 1007 1008 1
e 1008 1052 1
e 1008 1009 1
e 1009 1053 1
e 1009 1010 1
e 1010 1054 1
e 1010 1011 1
e 1011 1055 1
e 1011 1012 1
e 1012 1056 1
e 1012 1013 1
e 1013 1057 1
e 1013 1014 1
e 1014 1058 1
e 1014 1015 1
e 1015 1059 1
e 1015 1016 1
e 1016 1060 1
e 1016 1017 1
e 1017 1061 1
e 1018 1062 1
e 1018 1019 1
e 1019 1063 1
e 1019 1020 1
e 1020 1064 1
e 1020 1021 1
e 1021 1065 1
e 1021 1022 1
e 1022 1066 1
e 1022 1023 1
e 1023 1067 1
e 1023 1024 1
e 1024 1068 1
e 1024 1025 1
e 1025 1069 1
e 1025 1026 1
e 1026 1070 1
e 1026 1027 1
e 1027 1071 1
e 1027 1028 1
e 1028 1072 1
e 1028 1029 1
e 1030 1073 1
e 1030 1031 1
e 1031 1074 1
e 1031 1032 1
e 1032 1075 1
e 1032 1033 1
e 1033 1076 1
e 1033 1034 1
e 1034 1077 1
e 1034 1035 1
e 1035 1078 1
e 1035 1036 1
e 1036 1037 1
e 1037 1038 1
e 1038 1039 1
e 1039 1040 1
e 1040 1041 1
e 1041 1079 1
e 1042 1080 1
e 1042 1043 1
e 1043 1081 1
e 1043 1044 1
e 1044 1082 1
e 1044 1045 1
e 1045 1083 1
e 1045 1046 1
e 1046 1084 1
e 1046 1047 1
e 1047 1085 1
e 1047 1048 1
e 1048 1086 1
e 1048 1049 1
e 1049 1087 1
e 1049 1050 1
e 1050 1088 1
e 1050 1051 1
e 1051 1089 1
e 1051 1052 1
e 1052 1090 1
e 1052 1053 1
e 1053 1091 1
e 1053 1054 1
e 1054 1092 1
e 1054 1055 1
e 1055 1056 1
e 1056 1057 1
e 1057 1058 1
e 1058 1093 1
e 1058 1059 1
e 1059 1094 1
e 1059 1060 1
e 1060 1095 1
e 1060 1061 1
e 1061 1096 1
e 1062 1097 1
e 1062 1063 1
e 1063 1098 1
e 1063 1064 1
e 1064 1099 1
e 1064 1065 1
e 1065 1100 1
e 1065 1066 1
e 1066 1067 1
e 1067 1068 1
e 1068 1069 1
e 1069 1070 1
e 1070 1071 1
e 1071 1072 1
e 1073 1074 1
e 1074 1075 1
e 1075 1076 1
e 1076 1077 1
e 1077 1078 1
e 1080 1101 1
e 1080 1081 1
e 1081 1102 1
e 1081 1082 1
e 1082 1103 1
e 1082 1083 1
e 1083 1104 1
e 1083 1084 1
e 1084 1105 1
e 1084 1085 1
e 1085 1106 1
e 1085 1086 1
e 1086 1107 1
e 1086 1087 1
e 1087 1108 1
e 1087 1088 1
e 1088 1109 1
e 1088 1089 1
e 1089 1110 1
e 1089 1090 1
e 1090 1111 1
e 1090 1091 1
e 1091 1112 1
e 1091 1092 1
e 1092 1113 1
e 1093 1114 1
e 1093 1094 1
e 1094 1115 1
e 1094 1095 1
e 1095 1116 1
e 1095 1096 1
e 1096 1117 1
e 1097 1118 1
e 1097 1098 1
e 1098 1119 1
e 1098 1099 1
e 1099 1120 1
e 1099 1100 1
e 1101 1121 1
e 1101 1102 1
e 1102 1122 1
e 1102 1103 1
e 1103 1123 1
e 1103 1104 1
e 1104 1124 1
e 1104 1105 1
e 1105 1125 1
e 1105 1106 1
e 1106 1126 1
e 1106 1107 1
e 1107 1127 1
e 1107 1108 1
e 1108 1128 1
e 1108 1109 1
e 1109 1129 1
e 1109 1110 1
e 1110 1130 1
e 1110 1111 1
e 1111 1131 1
e 1111 1112 1
e 1112 1132 1
e 1112 1113 1
e 1113 1133 1
e 1114 1134 1
e 1114 1115 1
e 1115 1135 1
e 1115 1116 1
e 1116 1136 1
e 1116 1117 1
e 1117 1137 1
e 1118 1154 1
e 1118 1119 1
e 1119 1155 1
e 1119 1120 1
e 1120 1156 1
e 1121 1157 1
e 1121 1122 1
e 1122 1158 1
e 1122 1123 1
e 1123 1159 1
e 1123 1124 1
e 1124 1160 1
e 1124 1125 1
e 1125 1161 1
e 1125 1126 1
e 1126 1162 1
e 1126 1127 1
e 1127 1163 1
e 1127 1128 1
e 1128 1164 1
e 1128 1129 1
e 1129 1165 1
e 1129 1130 1
e 1130 1166 1
e 1130 1131 1
e 1131 1167 1
e 1131 1132 1
e 1132 1168 1
e 1132 1133 1
e 1133 1169 1
e 1134 1170 1
e 1134 1135 1
e 1135 1171 1
e 1135 1136 1
e 1136 1172 1
e 1136 1137 1
e 1137 1173 1
e 1137 1138 1
e 1138 1174 1
e 1138 1139 1
e 1139 1175 1
e 1139 1140 1
e 1140 1176 1
e 1141 1179 1
e 1141 1142 1
e 1142 1180 1
e 1142 1143 1
e 1143 1181 1
e 1143 1144 1
e 1144 1182 1
e 1144 1145 1
e 1145 1183 1
e 1145 1146 1
e 1146 1184 1
e 1147 1185 1
e 1147 1148 1
e 1148 1186 1
e 1148 1149 1
e 1149 1187 1
e 1150 1190 1
e 1150 1151 1
e 1151 1191 1
e 1151 1152 1
e 1152 1192 1
e 1152 1153 1
e 1153 1193 1
e 1153 1154 1
e 1154 1194 1
e 1154 1155 1
e 1155 1195 1
e 1155 1156 1
e 1156 1196 1
e 1157 1197 1
e 1157 1158 1
e 1158 1198 1
e 1158 1159 1
e 1159 1199 1
e 1159 1160 1
e 1160 1200 1
e 1160 1161 1
e 1161 1201 1
e 1161 1162 1
e 1162 1202 1
e 1162 1163 1
e 1163 1203 1
e 1163 1164 1
e 1164 1204 1
e 1164 1165 1
e 1165 1205 1
e 1165 1166 1
e 1166 1206 1
e 1166 1167 1
e 1167 1207 1
e 1167 1168 1
e 1168 1208 1
e 1168 1169 1
e 1169 1209 1
e 1170 1210 1
e 1170 1171 1
e 1171 1211 1
e 1171 1172 1
e 1172 1212 1
e 1172 1173 1
e 1173 1213 1
e 1173 1174 1
e 1174 1214 1
e 1174 1175 1
e 1175 1215 1
e 1175 1176 1
e 1176 1216 1
e 1176 1177 1
e 1177 1217 1
e 1177 1178 1
e 1178 1218 1
e 1178 1179 1
e 1179 1219 1
e 1179 1180 1
e 1180 1220 1
e 1180 1181 1
e 1181 1221 1
e 1181 1182 1
e 1182 1222 1
e 1182 1183 1
e 1183 1223 1
e 1183 1184 1
e 1184 1224 1
e 1185 1227 1
e 1185 1186 1
e 1186 1228 1
e 1186 1187 1
e 1187 1229 1
e 1187 1188 1
e 1188 1230 1
e 1188 1189 1
e 1189 1231 1
e 1189 1190 1
e 1190 1232 1
e 1190 1191 1
e 1191 1233 1
e 1191 1192 1
e 1192 1234 1
e 1192 1193 1
e 1193 1235 1
e 1193 1194 1
e 1194 1236 1
e 1194 1195 1
e 1195 1237 1
e 1195 1196 1
e 1196 1238 1
e 1197 1239 1
e 1197 1198 1
e 1198 1240 1
e 1198 1199 1
e 1199 1241 1
e 1199 1200 1
e 1200 1242 1
e 1200 1201 1
e 1201 1243 1
e 1201 1202 1
e 1202 1244 1
e 1202 1203 1
e 1203 1245 1
e 1203 1204 1
e 1204 1246 1
e 1204 1205 1
e 1205 1247 1
e 1205 1206 1
e 1206 1248 1
e 1206 1207 1
e 1207 1249 1
e 1207 1208 1
e 1208 1250 1
e 1208 1209 1
e 1209 1251 1
e 1210 1252 1
e 1210 1211 1
e 1211 1253 1
e 1211 1212 1
e 1212 1254 1
e 1212 1213 1
e 1213 1255 1
e 1213 1214 1
e 1214 1256 1
e 1214 1215 1
e 1215 1257 1
e 1215 1216 1
e 1216 1258 1
e 1216 1217 1
e 1217 1259 1
e 1217 1218 1
e 1218 1260 1
e 1218 1219 1
e 1219 1261 1
e 1219 1220 1
e 1220 1262 1
e 1220 1221 1
e 1221 1263 1
e 1221 1222 1
e 1222 1264 1
e 1222 1223 1
e 1223 1265 1
e 1223 1224 1
e 1224 1266 1
e 1224 1225 1
e 1225 1267 1
e 1225 1226 1
e 1226 1268 1
e 1226 1227 1
e 1227 1269 1
e 1227 1228 1
e 1228 1270 1
e 1228 1229 1
e 1229 1271 1
e 1229 1230 1
e 1230 1272 1
e 1230 1231 1
e 1231 1273 1
e 1231 1232 1
e 1232 1274 1
e 1232 1233 1
e 1233 1275 1
e 1233 1234 1
e 1234 1276 1
e 1234 1235 1
e 1235 1277 1
e 1235 1236 1
e 1236 1278 1
e 1236 1237 1
e 1237 1279 1
e 1237 1238 1
e 1238 1280 1
e 1239 1240 1
e 1240 1241 1
e 1241 1281 1
e 1241 1242 1
e 1242 1282 1
e 1242 1243 1
e 1243 1283 1
e 1243 1244 1
e 1244 1284 1
e 1244 1245 1
e 1245 1285 1
e 1245 1246 1
e 1246 1286 1
e 1246 1247 1
e 1247 1287 1
e 1247 1248 1
e 1248 1288 1
e 1248 1249 1
e 1249 1289 1
e 1249 1250 1
e 1250 1290 1
e 1250 1251 1
e 1251 1291 1
e 1252 1292 1
e 1252 1253 1
e 1253 1293 1
e 1253 1254 1
e 1254 1294 1
e 1254 1255 1
e 1255 1295 1
e 1255 1256 1
e 1256 1296 1
e 1256 1257 1
e 1257 1297 1
e 1257 1258 1
e 1258 1298 1
e 1258 1259 1
e 1259 1299 1
e 1259 1260 1
e 1260 1300 1
e 1260 1261 1
e 1261 1301 1
e 1261 1262 1
e 1262 1302 1
e 1262 1263 1
e 1263 1303 1
e 1263 1264 1
e 1264 1304 1
e 1264 1265 1
e 1265 1305 1
e 1265 1266 1
e 1266 1306 1
e 1266 1267 1
e 1267 1307 1
e 1267 1268 1
e 1268 1308 1
e 1268 1269 1
e 1269 1309 1
e 1269 1270 1
e 1270 1310 1
e 1270 1271 1
e 1271 1311 1
e 1271 1272 1
e 1272 1312 1
e 1272 1273 1
e 1273 1313 1
e 1273 1274 1
e 1274 1314 1
e 1274 1275 1
e 1275 1315 1
e 1275 1276 1
e 1276 1316 1
e 1276 1277 1
e 1277 1317 1
e 1277 1278 1
e 1278 1318 1
e 1278 1279 1
e 1279 1319 1
e 1279 1280 1
e 1280 1320 1
e 1281 1282 1
e 1282 1283 1
e 1283 1321 1
e 1283 1284 1
e 1284 1322 1
e 1284 1285 1
e 1285 1323 1
e 1285 1286 1
e 1286 1324 1
e 1286 1287 1
e 1287 1325 1
e 1287 1288 1
e 1288 1326 1
e 1288 1289 1
e 1289 1327 1
e 1289 1290 1
e 1290 1328 1
e 1290 1291 1
e 1291 1329 1
e 1292 1330 1
e 1292 1293 1
e 1293 1294 1
e 1294 1295 1
e 1295 1331 1
e 1295 1296 1
e 1296 1332 1
e 1296 1297 1
e 1297 1333 1
e 1297 1298 1
e 1298 1334 1
e 1298 1299 1
e 1299 1335 1
e 1299 1300 1
e 1300 1336 1
e 1300 1301 1
e 1301 1337 1
e 1301 1302 1
e 1302 1338 1
e 1302 1303 1
e 1303 1339 1
e 1303 1304 1
e 1304 1340 1
e 1304 1305 1
e 1305 1341 1
e 1305 1306 1
e 1306 1342 1
e 1306 1307 1
e 1307 1343 1
e 1307 1308 1
e 1308 1344 1
e 1308 1309 1
e 1309 1345 1
e 1309 1310 1
e 1310 1346 1
e 1310 1311 1
e 1311 1347 1
e 1311 1312 1
e 1312 1348 1
e 1312 1313 1
e 1313 1349 1
e 1313 1314 1
e 1314 1350 1
e 1314 1315 1
e 1315 1351 1
e 1315 1316 1
e 1316 1352 1
e 1316 1317 1
e 1317 1353 1
e 1317 1318 1
e 1318 1354 1
e 1318 1319 1
e 1319 1355 1
e 1319 1320 1
e 1320 1356 1
e 1321 1322 1
e 1322 1323 1
e 1323 1324 1
e 1324 1325 1
e 1325 1326 1
e 1326 1357 1
e 1326 1327 1
e 1327 1358 1
e 1327 1328 1
e 1328 1329 1
e 1331 1332 1
e 1332 1333 1
e 1333 1334 1
e 1334 1335 1
e 1335 1336 1
e 1336 1337 1
e 1337 1338 1
e 1338 1339 1
e 1339 1340 1
e 1340 1341 1
e 1341 1342 1
e 1342 1343 1
e 1343 1344 1
e 1344 1345 1
e 1345 1346 1
e 1346 1347 1
e 1347 1348 1
e 1348 1349 1
e 1349 1350 1
e 1350 1351 1
e 1351 1352 1
e 1352 1353 1
e 1353 1354 1
e 1354 1355 1
e 1355 1356 1
e 1357 1359 1
e 1357 1358 1
e 1358 1360 1
e 1359 1360 1